N = 5;
Capacity = 4;
ItemsPerCustomer = [3, 5, 2, 6, 6];
maxItemsPerCustomer = 6;
binCapacity = 50;
SizesOfItems = [|
  36, 32, 31, 0, 0, 0
| 40, 27, 20, 16, 14, 0
| 26, 18, 0, 0, 0, 0
| 39, 34, 33, 33, 15, 11
| 40, 35, 33, 25, 21, 17
|];
Distance = [|
  0, 25, 63, 34, 42, 30
| 25, 0, 86, 54, 21, 13
| 63, 86, 0, 33, 105, 86
| 34, 54, 33, 0, 74, 53
| 42, 21, 105, 74, 0, 29
| 30, 13, 86, 53, 29, 0
|];
